units		si
atom_style	atomic
atom_modify	map array

region		box block 0 1 0 1 0 1
create_box	1 box
create_atoms	1 random 100 12345 NULL
mass		1 1.0

fix		1 all nve
comm_modify     cutoff 1.0

fix             aphros_array       all external pf/array 1

timestep        0.01

dump            1 all image 1 *.ppm type type adiam 0.1
dump_modify     1 pad 4
